n = 10;
k = 155;
price = [17, 23, 21, 22, 22, 23, 23, 21, 24, 25];
m = 30;
buy = [7, 6, 3, 5, 5, 6, 6, 7, 3, 6, 6, 2, 5, 2, 4, 6, 5, 2, 3, 5, 4, 7, 7, 3, 6, 6, 6, 2, 6, 2];
free = [3, 3, 1, 2, 2, 2, 2, 3, 1, 3, 2, 1, 2, 1, 2, 3, 2, 1, 1, 2, 2, 3, 3, 1, 2, 2, 3, 1, 3, 1];
